
List of user-set options:

                                    Name   Value                used
                acceptable_compl_inf_tol = 1e+10                 yes
              acceptable_constr_viol_tol = 1e-06                 yes
                 acceptable_dual_inf_tol = 1e+10                 yes
                         acceptable_iter = 5                     yes
                          acceptable_tol = 1                     yes
                             alpha_for_y = safer-min-dual-infeas  yes
                  bound_mult_init_method = mu-based              yes
                        file_print_level = 5                     yes
                   hessian_approximation = limited-memory        yes
                           linear_solver = mumps                 yes
                      nlp_scaling_method = gradient-based        yes
                             output_file = C:\Users\steph\Documents\GitHub\gtoc13\__main___out/IPOPT.out  yes
                             print_level = 5                     yes
                      print_user_options = yes                   yes
                                      sb = yes                   yes
                                     tol = 1e-06                 yes
This is Ipopt version 3.14.17, running with linear solver MUMPS 5.7.3.

Number of nonzeros in equality constraint Jacobian...:    94800
Number of nonzeros in inequality constraint Jacobian.:      378
Number of nonzeros in Lagrangian Hessian.............:        0

Total number of variables............................:      747
                     variables with only lower bounds:        1
                variables with lower and upper bounds:      183
                     variables with only upper bounds:        0
Total number of equality constraints.................:      746
Total number of inequality constraints...............:        3
        inequality constraints with only lower bounds:        0
   inequality constraints with lower and upper bounds:        0
        inequality constraints with only upper bounds:        3

iter    objective    inf_pr   inf_du lg(mu)  ||d||  lg(rg) alpha_du alpha_pr  ls
   0 -1.1374192e+01 6.97e+05 4.42e+00   0.0 0.00e+00    -  0.00e+00 0.00e+00   0
   1 -2.5640729e+01 1.09e+04 1.38e+03   1.0 1.42e+03    -  1.49e-04 7.95e-02f  1
   2 -2.7428492e+01 1.08e+04 1.73e+03  -6.9 3.89e+03    -  6.02e-05 3.90e-03h  1
   3 -2.7425391e+01 1.08e+04 1.74e+03   1.1 1.12e+04    -  1.20e-01 2.10e-05h  1
   4 -2.6707286e+01 1.08e+04 2.24e+04   1.0 1.05e+04    -  1.00e+00 4.18e-03h  2
   5 -2.6531594e+01 1.08e+04 1.98e+04   1.7 3.13e+03    -  1.00e+00 2.63e-03h  5
   6 -2.6088435e+01 1.07e+04 1.60e+05   1.8 3.31e+03    -  9.94e-01 9.69e-03h  4
   7 -2.4704002e+01 1.01e+04 4.54e+05   2.0 2.59e+03    -  5.17e-02 1.00e-01f  2
   8 -1.3096318e+01 2.35e+04 2.62e+05   2.0 2.52e+02    -  1.71e-01 9.90e-01f  1
   9 -9.0003956e+00 4.94e+04 3.90e+07   2.0 5.64e+02    -  3.13e-02 9.90e-01f  1
iter    objective    inf_pr   inf_du lg(mu)  ||d||  lg(rg) alpha_du alpha_pr  ls
  10 -9.0379249e+00 3.13e+04 4.84e+09   1.8 5.18e+02    -  7.83e-02 4.36e-01h  1
  11 -8.0025489e+00 5.76e+03 5.00e+08   1.8 3.13e+02    -  9.82e-01 8.16e-01h  1
  12 -8.0011918e+00 5.69e+03 5.96e+08   1.8 1.72e+02    -  6.38e-01 1.16e-02h  1
  13 -8.0011920e+00 5.69e+03 1.02e+07   1.7 5.69e+01    -  1.00e+00 5.34e-04h  1
  14 -1.1901917e+01 4.77e+03 7.46e+08   2.0 1.38e+02    -  1.75e-01 1.61e-01f  1
  15 -1.3714140e+01 4.56e+03 9.46e+08   2.0 1.20e+02    -  2.28e-01 4.50e-02f  2
  16 -1.4416698e+01 4.50e+03 1.24e+07   1.7 2.26e+02    -  1.00e+00 1.20e-02h  2
  17 -1.4985597e+01 4.44e+03 2.60e+07   2.0 1.98e+02    -  1.71e-01 1.39e-02h  1
  18 -1.4988906e+01 4.44e+03 2.10e+09   1.9 1.11e+02    -  1.00e+00 2.47e-04h  1
  19 -1.4611780e+01 4.22e+03 5.73e+12   1.8 4.44e+01    -  1.00e+00 4.83e-02h  1
iter    objective    inf_pr   inf_du lg(mu)  ||d||  lg(rg) alpha_du alpha_pr  ls
  20 -1.0508691e+01 3.85e+02 1.86e+14   1.7 4.23e+01    -  1.00e+00 9.76e-01h  1
  21 -9.7236016e+00 4.56e+02 1.13e+15   0.2 2.25e+01    -  1.00e+00 9.92e-01h  1
  22r-9.7236016e+00 4.56e+02 1.00e+03   2.0 0.00e+00    -  0.00e+00 4.52e-09R  2
  23r-9.6906896e+00 4.60e+02 9.87e+02  -4.1 5.53e+04    -  8.03e-02 1.42e-03f  1
  24 -9.6906896e+00 4.60e+02 7.22e+10   1.1 1.54e+01    -  1.00e+00 2.38e-09f  2
  25r-9.6906896e+00 4.60e+02 1.00e+03   1.9 0.00e+00    -  0.00e+00 8.06e-09R  2
  26r-9.7271702e+00 4.68e+02 9.61e+02   2.8 1.39e+04    -  3.93e-02 2.05e-03f  1
  27 -9.8282045e+00 4.27e+02 6.22e+01   0.1 9.58e+00    -  9.88e-01 8.76e-02h  1
  28 -9.8302989e+00 4.27e+02 4.58e+02  -5.6 8.70e+00    -  7.07e-01 1.47e-03h  1
  29 -9.8650369e+00 4.19e+02 8.68e+03  -0.9 8.56e+00    -  1.00e+00 1.81e-02h  1
iter    objective    inf_pr   inf_du lg(mu)  ||d||  lg(rg) alpha_du alpha_pr  ls
  30 -9.8654042e+00 4.19e+02 4.95e+05  -1.3 8.42e+00    -  9.32e-01 1.95e-04h  1
  31r-9.8654042e+00 4.19e+02 1.00e+03   1.6 0.00e+00    -  0.00e+00 2.98e-07R  4
  32r-9.9299170e+00 4.49e+02 9.52e+02   3.3 7.45e+03    -  4.79e-02 2.50e-03f  1
  33 -1.0163458e+01 3.86e+02 1.83e+02   0.1 9.25e+00    -  9.79e-01 1.41e-01f  2
  34 -1.0464180e+01 3.10e+02 4.90e+02  -0.9 1.45e+01    -  9.97e-01 1.95e-01h  3
  35 -1.0460747e+01 2.99e+02 1.77e+03  -1.9 7.77e+00    -  1.00e+00 3.50e-02h  1
  36 -1.0461653e+01 2.99e+02 1.12e+04  -7.1 1.17e+01    -  8.00e-01 6.42e-04h  1
  37 -1.0473336e+01 2.98e+02 4.46e+05  -1.4 1.96e+01    -  1.00e+00 3.42e-03h  1
  38 -1.0473452e+01 2.98e+02 8.54e+07  -4.8 1.87e+01    -  6.42e-01 3.57e-05h  1
  39r-1.0473452e+01 2.98e+02 1.00e+03   1.3 0.00e+00    -  0.00e+00 3.39e-07R  7
iter    objective    inf_pr   inf_du lg(mu)  ||d||  lg(rg) alpha_du alpha_pr  ls
  40r-1.0462155e+01 3.04e+02 1.07e+03   2.2 6.66e+03    -  8.42e-02 1.76e-03f  1
  41 -1.0456822e+01 3.03e+02 5.56e+00  -4.0 2.35e+01    -  9.39e-01 3.89e-03h  1
  42 -1.0456769e+01 3.03e+02 5.19e+02  -1.1 2.59e+01    -  9.78e-01 3.87e-05h  1
  43 -1.0456804e+01 3.03e+02 3.39e+05  -6.6 1.96e+01    -  6.48e-01 1.22e-05h  1
  44r-1.0456804e+01 3.03e+02 1.00e+03   1.2 0.00e+00    -  0.00e+00 1.02e-07R  2
  45r-1.0424715e+01 3.10e+02 1.06e+03   1.9 1.28e+03    -  5.81e-02 3.76e-03f  1
  46 -1.0976309e+01 1.92e+03 1.16e+03   0.7 5.51e+01    -  6.95e-01 9.90e-01f  1
  47 -1.2151762e+01 1.58e+03 5.94e+03   1.5 4.69e+01    -  7.96e-01 1.73e-01h  1
  48 -1.3871339e+01 4.13e+03 4.19e+04   1.5 3.60e+01    -  1.12e-01 9.88e-01h  1
  49 -1.5568715e+01 2.13e+03 1.88e+08   1.5 4.88e+01    -  8.41e-01 8.13e-01h  1
iter    objective    inf_pr   inf_du lg(mu)  ||d||  lg(rg) alpha_du alpha_pr  ls
  50 -1.5821579e+01 2.06e+03 2.19e+07   1.4 1.10e+02    -  1.00e+00 3.78e-02h  1
  51 -1.5804013e+01 2.05e+03 4.52e+06   0.4 1.29e+02    -  1.00e+00 6.08e-03h  1
  52 -1.5803782e+01 2.05e+03 4.53e+06  -5.6 1.52e+02    -  5.05e-03 6.12e-05h  1
  53 -1.5660422e+01 2.06e+03 3.92e+07   2.0 1.99e+04    -  1.66e-06 9.16e-05h  1
In iteration 53, 1 Slack too small, adjusting variable bound
  54 -1.5292451e+01 2.22e+03 8.88e+07   2.0 2.41e+04    -  1.13e-04 2.52e-04f  1
  55 -1.5292250e+01 2.23e+03 6.90e+10   1.0 2.15e+04    -  7.57e-02 1.23e-05h  1
In iteration 55, 1 Slack too small, adjusting variable bound
  56 -1.5292881e+01 2.23e+03 1.28e+13   2.0 3.31e+05    -  1.26e-02 1.22e-06h  1
In iteration 56, 1 Slack too small, adjusting variable bound
  57 -1.0547373e+01 4.20e+04 6.47e+16   2.0 8.92e+04    -  7.19e-04 5.06e-03f  2
In iteration 57, 1 Slack too small, adjusting variable bound
  58 -1.0402584e+01 4.20e+04 9.09e+16   2.0 6.71e+03    -  9.20e-03 1.04e-03h  1
In iteration 58, 1 Slack too small, adjusting variable bound
  59 -9.8037266e+00 4.19e+04 3.71e+18   2.0 7.49e+03    -  1.00e+00 3.07e-03h  1
In iteration 59, 1 Slack too small, adjusting variable bound
iter    objective    inf_pr   inf_du lg(mu)  ||d||  lg(rg) alpha_du alpha_pr  ls
  60 -9.7837241e+00 4.19e+04 2.95e+18   2.0 1.05e+04    -  6.96e-03 5.20e-05h  1
  61r-9.7837241e+00 4.19e+04 1.00e+03   4.0 0.00e+00    -  0.00e+00 2.62e-07R  2
  62r-1.1336503e+01 3.22e+04 9.92e+02  -2.1 5.64e+05    -  3.35e-02 5.83e-03f  1
  63 -1.2649436e+01 2.28e+04 1.39e+17   2.0 3.21e+02    -  1.00e+00 2.92e-01f  1
  64 -1.2664323e+01 2.27e+04 1.26e+17   2.0 2.26e+02    -  9.55e-02 4.09e-03h  1
  65 -1.2664473e+01 2.27e+04 1.13e+17   2.0 2.25e+02    -  9.99e-02 4.11e-05h  1
  66r-1.2664473e+01 2.27e+04 1.00e+03   3.7 0.00e+00    -  0.00e+00 2.05e-07R  2
  67r-1.3848056e+01 1.33e+04 9.90e+02  -2.4 4.99e+05    -  3.46e-02 6.09e-03f  1
  68 -1.5175395e+01 1.10e+04 3.20e+04   2.0 1.32e+02    -  1.00e+00 1.73e-01h  1
  69 -1.5180971e+01 1.10e+04 3.76e+03   2.0 1.09e+02    -  8.82e-01 2.11e-03h  1
iter    objective    inf_pr   inf_du lg(mu)  ||d||  lg(rg) alpha_du alpha_pr  ls
  70 -1.5102559e+01 1.10e+04 2.01e+03   2.0 2.18e+03    -  2.52e-03 2.50e-04h  3
  71 -1.4964519e+01 1.10e+04 4.29e+03   2.0 2.16e+03    -  3.36e-03 4.15e-04h  2
  72 -1.4877575e+01 1.10e+04 1.90e+05   2.0 2.13e+03    -  1.45e-01 2.46e-04h  2
  73 -1.4778188e+01 1.10e+04 1.93e+06   2.0 2.08e+03    -  3.67e-03 2.77e-04h  1
  74r-1.4778188e+01 1.10e+04 1.00e+03   3.2 0.00e+00    -  0.00e+00 4.30e-07R  5
  75r-1.5620659e+01 5.53e+03 9.61e+02  -2.8 4.17e+05    -  8.49e-02 4.07e-03f  1
  76 -1.5753238e+01 5.28e+03 3.46e+05   1.3 1.06e+02    -  4.18e-01 4.51e-02f  1
  77 -1.5753355e+01 5.28e+03 6.06e+03   1.3 5.21e+01    -  9.82e-01 4.91e-04h  1
  78 -1.5659224e+01 5.28e+03 5.08e+03   1.3 1.72e+03    -  1.22e-03 2.97e-04h  3
  79 -1.5582545e+01 5.28e+03 1.11e+04   1.3 1.70e+03    -  1.62e-03 2.43e-04h  3
iter    objective    inf_pr   inf_du lg(mu)  ||d||  lg(rg) alpha_du alpha_pr  ls
  80 -1.5521010e+01 5.28e+03 1.02e+06   1.3 1.69e+03    -  1.48e-01 1.96e-04h  3
  81 -1.5424257e+01 5.27e+03 1.94e+06   1.3 1.69e+03    -  2.00e-03 3.13e-04h  2
  82 -1.5371173e+01 5.27e+03 6.77e+08   1.3 1.69e+03    -  5.07e-01 1.72e-04h  2
  83 -1.5315329e+01 5.27e+03 1.04e+10   1.3 1.70e+03    -  2.47e-03 1.81e-04h  1
  84r-1.5315329e+01 5.27e+03 1.00e+03   2.9 0.00e+00    -  0.00e+00 4.88e-07R  3
  85r-1.6086249e+01 2.07e+03 9.91e+02  -3.2 1.03e+05    -  1.62e-02 4.99e-03f  1
  86 -1.6153206e+01 2.02e+03 1.99e+01  -0.1 1.99e+01    -  7.20e-01 2.79e-02f  1
  87 -1.6153379e+01 2.02e+03 1.62e+01  -4.5 1.95e+01    -  3.57e-01 2.89e-04h  1
  88 -1.6127628e+01 2.02e+03 1.62e+01  -4.7 2.00e+03    -  9.91e-04 7.47e-05h  2
  89 -1.6100809e+01 2.02e+03 1.71e+01  -4.7 2.00e+03    -  1.06e-03 7.71e-05h  1
iter    objective    inf_pr   inf_du lg(mu)  ||d||  lg(rg) alpha_du alpha_pr  ls
  90r-1.6100809e+01 2.02e+03 1.00e+03   2.5 0.00e+00    -  0.00e+00 3.64e-07R  3
  91r-1.5207179e+01 1.09e+03 9.91e+02  -3.6 8.28e+04    -  9.95e-03 3.86e-03f  1
  92 -1.5227405e+01 1.08e+03 9.75e+00  -0.1 1.32e+01    -  7.36e-01 8.41e-03h  1
  93 -1.5227444e+01 1.08e+03 1.38e+01  -0.7 1.39e+01    -  9.72e-01 8.52e-05h  1
  94 -1.5211747e+01 1.08e+03 2.23e+02  -6.0 2.19e+03    -  2.59e-04 4.29e-05h  1
  95r-1.5211747e+01 1.08e+03 1.00e+03   1.4 0.00e+00    -  0.00e+00 3.35e-07R  2
  96r-1.5202833e+01 1.08e+03 1.22e+03   3.3 1.78e+04    -  1.59e-02 7.14e-05f  5
  97r-1.4980528e+01 1.06e+03 1.18e+03  -4.4 1.39e+03    -  3.39e-02 1.66e-02f  1
  98 -1.4816725e+01 6.86e+02 4.68e+04   0.1 1.20e+01    -  9.13e-01 3.54e-01f  1
  99 -1.4910512e+01 5.15e+03 2.31e+05   0.9 8.98e+00    -  7.05e-01 9.89e-01f  1
iter    objective    inf_pr   inf_du lg(mu)  ||d||  lg(rg) alpha_du alpha_pr  ls
 100 -1.4549386e+01 3.67e+03 3.80e+06   0.9 2.03e+02    -  5.46e-02 1.36e-01h  1
 101 -1.5237019e+01 6.56e+03 3.36e+07   0.9 4.90e+01    -  1.00e+00 8.56e-01f  1
 102 -1.5166052e+01 6.21e+03 2.40e+08   0.9 3.57e+02    -  1.05e-01 5.96e-02h  1
 103 -1.5169797e+01 6.20e+03 1.97e+08   0.9 2.07e+02    -  1.86e-01 6.34e-04h  1
 104r-1.5169797e+01 6.20e+03 1.00e+03   3.2 0.00e+00    -  0.00e+00 3.98e-07R  5
 105r-1.4754420e+01 2.29e+03 9.94e+02  -2.9 4.72e+05    -  1.10e-02 2.74e-03f  1
 106 -1.4740965e+01 2.23e+03 2.91e+04   0.9 5.39e+01    -  1.00e+00 2.75e-02h  1
 107 -1.4739808e+01 2.23e+03 1.27e+05   0.9 5.06e+01    -  1.45e-01 2.84e-04h  1
 108 -1.4619811e+01 2.23e+03 1.12e+05   0.9 1.01e+04    -  5.06e-05 5.06e-05s  8
 109r-1.4619811e+01 2.23e+03 1.00e+03   2.6 0.00e+00    -  0.00e+00 0.00e+00R  1
iter    objective    inf_pr   inf_du lg(mu)  ||d||  lg(rg) alpha_du alpha_pr  ls
 110r-1.4589375e+01 8.69e+02 9.95e+02  -3.5 1.35e+05    -  5.23e-03 1.75e-03f  1
 111 -1.4593133e+01 8.65e+02 8.75e+00   0.9 2.26e+01    -  1.00e+00 4.21e-03h  1
 112r-1.4593133e+01 8.65e+02 1.00e+03   2.2 0.00e+00    -  0.00e+00 4.42e-07R  8
 113r-1.4646795e+01 3.71e+02 9.89e+02  -3.9 1.55e+05    -  1.09e-02 1.02e-03f  1
 114 -1.4647307e+01 3.71e+02 3.37e+00   0.9 3.00e+01    -  1.00e+00 1.15e-03h  1
 115r-1.4647307e+01 3.71e+02 1.00e+03   1.8 0.00e+00    -  0.00e+00 4.73e-07R  8
 116r-1.4668756e+01 2.02e+02 9.92e+02  -4.3 5.16e+04    -  8.48e-03 1.14e-03f  1
 117 -1.4668954e+01 2.02e+02 8.69e+00   0.4 2.45e+01    -  9.93e-01 4.82e-04h  1
 118r-1.4668954e+01 2.02e+02 1.00e+03   1.2 0.00e+00    -  0.00e+00 4.29e-07R  9
 119r-1.4672447e+01 2.13e+02 1.05e+03   2.9 1.08e+04    -  3.17e-02 1.18e-03f  1
iter    objective    inf_pr   inf_du lg(mu)  ||d||  lg(rg) alpha_du alpha_pr  ls
 120 -1.4716089e+01 2.00e+02 1.50e+02  -0.1 2.37e+01    -  9.73e-01 6.19e-02h  5
 121 -1.4716194e+01 1.93e+02 8.27e+03  -0.0 2.86e+01    -  9.98e-01 3.09e-02h  6
 122 -1.5881743e+01 2.22e+04 1.34e+06  -1.5 3.13e+01    -  5.66e-01 9.90e-01H  1
 123 -1.6071650e+01 9.50e+03 2.33e+09  -0.4 3.13e+01    -  1.00e+00 9.78e-01h  1
 124 -1.6151477e+01 6.24e+03 4.95e+07  -0.4 6.81e+00    -  1.00e+00 4.43e-01h  1
 125 -1.6451946e+01 3.60e+03 4.28e+09  -0.4 2.18e+01    -  1.00e+00 1.00e+00h  1
 126 -1.7149064e+01 3.42e+03 2.07e+04   0.7 5.28e+01    -  1.00e+00 4.71e-02h  1
 127 -1.7155379e+01 3.42e+03 3.77e+05   0.9 6.11e+01    -  1.00e+00 4.07e-04h  1
 128 -1.7077999e+01 3.30e+03 4.01e+08   0.9 1.22e+03    -  1.00e+00 3.68e-03h  1
 129 -1.5806156e+01 9.79e+02 5.85e+08   0.1 6.84e+02    -  1.00e+00 5.09e-02h  4
iter    objective    inf_pr   inf_du lg(mu)  ||d||  lg(rg) alpha_du alpha_pr  ls
 130 -1.5575166e+01 5.94e+02 5.10e+06   2.0 8.15e+00    -  9.89e-01 3.77e-01h  1
 131 -1.5573178e+01 5.90e+02 1.91e+04   2.0 5.95e+00    -  9.96e-01 6.04e-03h  1
 132 -1.5573143e+01 5.90e+02 1.91e+04  -4.0 5.68e+00    -  2.54e-04 6.08e-05h  1
 133 -1.5563213e+01 5.90e+02 1.91e+04   2.0 1.22e+04    -  2.82e-08 3.44e-06f  1
 134 -1.4550589e+01 6.03e+02 4.05e+04   1.9 1.46e+04    -  1.68e-02 3.01e-04f  1
 135r-1.4550589e+01 6.03e+02 1.00e+03   2.3 0.00e+00    -  0.00e+00 3.17e-07R  6
 136r-1.4405934e+01 2.63e+02 9.87e+02  -3.7 1.88e+05    -  1.33e-02 1.08e-03f  1
 137 -1.4411454e+01 2.63e+02 1.35e+01   1.2 1.33e+01    -  1.00e+00 1.66e-03h  1
 138 -1.4411297e+01 2.63e+02 1.01e+01   0.5 3.51e+01    -  1.08e-01 1.68e-05h  1
 139r-1.4411297e+01 2.63e+02 1.00e+03   1.7 0.00e+00    -  0.00e+00 3.98e-07R  6
iter    objective    inf_pr   inf_du lg(mu)  ||d||  lg(rg) alpha_du alpha_pr  ls
 140r-1.4407176e+01 9.08e+01 9.37e+02  -4.4 5.09e+04    -  6.45e-02 1.01e-03f  1
 141 -1.4413583e+01 9.08e+01 4.43e+00   0.5 6.65e+01    -  3.78e-01 3.72e-04h  1
 142r-1.4413583e+01 9.08e+01 1.00e+03   1.2 0.00e+00    -  0.00e+00 2.93e-07R  5
 143r-1.4413830e+01 2.53e+01 8.55e+02  -4.6 1.32e+04    -  1.45e-01 1.09e-03f  1
 144 -1.4414431e+01 2.53e+01 4.79e-01  -0.2 1.08e+01    -  7.98e-01 2.25e-04h  1
 145r-1.4414431e+01 2.53e+01 1.00e+03   0.5 0.00e+00    -  0.00e+00 2.71e-07R  5
 146r-1.4411968e+01 9.96e+00 9.28e+02   2.0 3.18e+03    -  7.15e-02 1.02e-03f  1
 147 -1.5412493e+01 1.95e+01 1.13e+01  -0.1 1.22e+01    -  7.92e-01 3.37e-01F  1
 148 -1.5118780e+01 5.94e+00 1.49e+01   0.4 9.07e-01    -  1.00e+00 9.88e-01h  1
 149 -1.5115730e+01 1.02e+00 1.61e-01  -1.7 4.44e-02    -  9.98e-01 8.28e-01h  1
iter    objective    inf_pr   inf_du lg(mu)  ||d||  lg(rg) alpha_du alpha_pr  ls
 150 -1.5119295e+01 9.69e-01 2.26e+00  -3.0 3.24e-01    -  9.99e-01 4.83e-02h  1
 151 -1.5119422e+01 9.69e-01 1.75e+02  -4.4 1.09e+00    -  1.00e+00 5.07e-04h  1
 152 -1.5281578e+01 4.64e-01 9.89e+01  -9.4 7.50e-01    -  8.42e-01 9.36e-01h  1
 153 -1.5280193e+01 1.11e-01 5.92e+02 -11.0 1.74e-02    -  9.82e-01 9.65e-01h  1
 154 -1.5280243e+01 1.11e-01 4.26e+02  -8.7 1.06e-02    -  1.00e+00 9.83e-01h  1
 155 -1.5280344e+01 1.11e-01 3.25e+02  -9.2 8.02e-03    -  1.00e+00 1.00e+00h  1
 156 -1.5280447e+01 1.11e-01 3.25e+02 -10.3 8.01e-03    -  1.00e+00 1.00e+00h  1
 157 -1.5315256e+01 5.15e+02 2.82e+05 -11.0 1.22e+01    -  1.00e+00 1.00e+00f  1
 158 -1.5467861e+01 6.05e+01 2.86e+05 -11.0 6.26e+00    -  1.00e+00 1.00e+00h  1
 159 -1.5485822e+01 6.30e+01 4.42e+05 -11.0 2.78e+04    -  8.54e-05 2.69e-05h  1
iter    objective    inf_pr   inf_du lg(mu)  ||d||  lg(rg) alpha_du alpha_pr  ls
 160 -1.5477482e+01 1.68e+00 5.60e+05 -10.4 2.63e-01    -  1.00e+00 1.00e+00h  1
 161 -1.5478762e+01 1.11e-01 2.23e+04  -8.3 1.96e-02    -  9.35e-01 1.00e+00h  1
 162 -1.5479076e+01 1.11e-01 8.97e+03 -10.2 1.30e-02    -  1.85e-01 1.00e+00h  1
 163 -1.5479076e+01 1.11e-01 4.68e+02 -10.2 1.27e-02    -  1.00e+00 1.49e-03h  1
 164 -1.5494393e+01 4.12e+00 9.22e+04 -11.0 7.00e-01    -  1.00e+00 1.00e+00h  1
 165 -1.5516531e+01 9.89e+00 3.21e+05  -9.0 1.01e+00    -  2.64e-01 1.00e+00h  1
 166 -1.5544612e+01 4.04e+01 1.23e+06  -7.5 1.87e+00    -  7.24e-04 1.00e+00h  1
 167r-1.5544612e+01 4.04e+01 1.00e+03   1.3 0.00e+00    -  0.00e+00 3.64e-07R  4
 168r-1.5533440e+01 1.29e+01 8.09e+02  -0.2 1.94e+04    -  1.92e-01 9.98e-04f  1
 169 -1.5534145e+01 2.59e+00 9.46e+02  -4.0 3.63e-01    -  9.88e-01 8.40e-01h  1
iter    objective    inf_pr   inf_du lg(mu)  ||d||  lg(rg) alpha_du alpha_pr  ls
 170 -1.5533607e+01 2.45e+00 1.09e+02  -1.6 7.66e-02  -4.0 1.00e+00 5.24e-02h  1
 171 -1.5533611e+01 2.45e+00 2.11e+03  -3.3 7.96e-02  -2.7 1.00e+00 5.53e-04h  1
 172 -1.5436129e+01 1.29e-01 1.71e+03  -1.2 4.25e-01    -  1.00e+00 1.00e+00h  1
 173 -1.5464036e+01 1.11e-01 1.05e+04  -1.3 1.20e-01    -  1.00e+00 1.00e+00h  1
 174r-1.5464036e+01 1.11e-01 1.00e+03  -1.6 0.00e+00    -  0.00e+00 4.38e-07R  8
 175r-1.5464046e+01 1.11e-01 4.36e-01  -3.1 2.26e+01    -  1.00e+00 9.90e-04f  1
 176 -1.5464160e+01 1.11e-01 2.35e+00  -2.0 7.62e-02    -  9.89e-01 6.55e-03h  1
 177r-1.5464160e+01 1.11e-01 1.00e+03  -2.2 0.00e+00    -  0.00e+00 2.57e-07R  9
 178r-1.5464169e+01 1.11e-01 5.54e+00  -2.0 5.64e+00    -  9.95e-01 9.91e-04f  1
 179 -1.5465763e+01 1.11e-01 1.10e+02  -3.1 8.34e-02    -  9.80e-01 8.19e-02h  1
iter    objective    inf_pr   inf_du lg(mu)  ||d||  lg(rg) alpha_du alpha_pr  ls
 180 -1.5465766e+01 1.11e-01 6.83e-01  -3.1 1.71e-02    -  9.91e-01 8.09e-04h  1
 181r-1.5465766e+01 1.11e-01 1.00e+03  -2.9 0.00e+00    -  0.00e+00 4.64e-07R  5
 182r-1.5465764e+01 1.11e-01 3.81e-02  -3.4 1.32e+00    -  1.00e+00 9.90e-04f  1
 183 -1.5465822e+01 1.11e-01 2.13e+00  -4.6 8.25e-02    -  9.82e-01 3.03e-03h  1
 184r-1.5465822e+01 1.11e-01 1.00e+03  -3.5 0.00e+00  -0.4 0.00e+00 3.28e-07R  4
 185r-1.5465806e+01 1.11e-01 1.45e+01  -6.5 3.32e-01    -  9.87e-01 9.90e-04f  1
 186r-1.5465806e+01 1.11e-01 9.99e+02  -4.1 0.00e+00    -  0.00e+00 3.47e-07R  5
 187r-1.5465785e+01 1.11e-01 1.14e+03  -4.7 8.37e-02    -  9.56e-03 9.90e-04f  1
 188 -1.5466279e+01 1.11e-01 1.99e+01  -4.6 1.53e-02  -0.0 9.96e-01 1.41e-01h  1
 189 -1.5466280e+01 1.11e-01 1.78e-02  -2.3 1.66e-02    -  9.97e-01 1.41e-04h  1
iter    objective    inf_pr   inf_du lg(mu)  ||d||  lg(rg) alpha_du alpha_pr  ls
 190r-1.5466280e+01 1.11e-01 1.00e+03  -4.7 0.00e+00    -  0.00e+00 3.72e-07R  3
 191r-1.5466275e+01 1.11e-01 7.17e+01  -3.8 9.87e-02    -  9.38e-01 9.98e-04f  1
 192 -1.5466074e+01 1.11e-01 5.64e+01  -0.1 1.16e+00    -  1.47e-03 1.47e-03s 13
 193r-1.5466074e+01 1.11e-01 1.00e+03   1.9 0.00e+00    -  0.00e+00 4.88e-07R  6
 194r-1.5466069e+01 1.11e-01 6.67e+00  -4.1 7.94e-02    -  9.90e-01 9.90e-01f  1
 195r-1.5466064e+01 1.11e-01 6.67e-02  -6.1 8.14e-04    -  9.90e-01 9.90e-01f  1
 196 -1.5466026e+01 1.11e-01 8.47e+01  -0.1 9.18e-01    -  9.92e-01 2.81e-04h 12
 197 -1.5331089e+01 5.02e+00 1.44e+05   0.1 2.23e+00    -  1.00e+00 2.88e-01f  2
 198 -1.5317906e+01 1.11e-01 1.09e+04   0.1 4.99e-02    -  1.00e+00 1.00e+00h  1
 199 -1.5313575e+01 1.11e-01 1.16e-01   0.1 4.57e-02    -  1.00e+00 3.97e-01h  1
iter    objective    inf_pr   inf_du lg(mu)  ||d||  lg(rg) alpha_du alpha_pr  ls
 200 -1.5313564e+01 1.11e-01 9.76e-03  -0.6 6.66e-03    -  1.00e+00 6.60e-03h  1
 201r-1.5313564e+01 1.11e-01 1.00e+03  -1.3 0.00e+00    -  0.00e+00 2.67e-07R  9
 202r-1.5313564e+01 1.11e-01 1.68e-03  -2.6 1.29e-01    -  1.00e+00 1.96e-02f  1
 203 -1.5315373e+01 1.11e-01 6.88e-02  -1.3 2.01e-01    -  9.88e-01 3.78e-02h  4
 204 -1.5375331e+01 1.11e-01 5.07e+00  -2.0 9.12e-01    -  9.95e-01 2.75e-01h  1
 205 -1.5375969e+01 1.11e-01 3.76e+01  -3.0 7.12e-01    -  1.00e+00 3.80e-03h  1
 206 -1.5361668e+01 1.11e-01 3.74e+01  -3.0 1.28e+03    -  4.74e-05 4.74e-05s  8
 207r-1.5361668e+01 1.11e-01 1.00e+03  -1.3 0.00e+00    -  0.00e+00 0.00e+00R  1
 208r-1.5361677e+01 1.11e-01 1.22e-01  -3.1 4.70e+01    -  1.00e+00 9.90e-04f  1
 209 -1.5361970e+01 1.11e-01 1.29e+01  -3.0 1.90e-01    -  9.58e-01 6.59e-03h  1
iter    objective    inf_pr   inf_du lg(mu)  ||d||  lg(rg) alpha_du alpha_pr  ls
 210 -1.5361965e+01 1.11e-01 6.78e-01  -3.0 3.08e-01    -  7.26e-01 6.64e-05h  1
 211r-1.5361965e+01 1.11e-01 1.00e+03  -1.9 0.00e+00    -  0.00e+00 3.39e-07R 12
 212r-1.5361966e+01 1.11e-01 7.55e-01  -1.7 1.16e+01    -  9.99e-01 9.91e-04f  1
 213 -1.5368615e+01 1.11e-01 1.59e+00  -3.0 1.89e-01    -  9.58e-01 1.50e-01h  1
 214 -1.5368623e+01 1.11e-01 1.69e-02  -3.0 1.83e-02    -  9.90e-01 1.77e-03h  1
 215r-1.5368623e+01 1.11e-01 1.00e+03  -2.6 0.00e+00    -  0.00e+00 3.53e-07R  7
 216r-1.5368560e+01 1.11e-01 2.75e+02  -8.0 2.57e+00    -  7.55e-01 9.90e-04f  1
 217 -1.5368561e+01 1.11e-01 3.67e+00  -4.5 1.83e-01    -  9.60e-01 1.79e-05h  1
 218r-1.5368561e+01 1.11e-01 1.00e+03  -3.2 0.00e+00    -  0.00e+00 7.08e-08R  2
 219r-1.5368434e+01 1.11e-01 3.04e+02  -6.1 6.47e-01    -  7.16e-01 9.90e-04f  1
iter    objective    inf_pr   inf_du lg(mu)  ||d||  lg(rg) alpha_du alpha_pr  ls
 220r-1.5368434e+01 1.11e-01 9.99e+02  -3.8 0.00e+00    -  0.00e+00 4.13e-07R  5
 221r-1.5368366e+01 1.11e-01 1.14e+03  -4.7 1.65e-01    -  1.52e-02 9.90e-04f  1
 222 -1.5374489e+01 1.11e-01 2.65e+01  -4.5 1.83e-01    -  9.61e-01 1.41e-01h  1
 223 -1.5374490e+01 1.11e-01 3.63e-02  -4.5 1.83e-02    -  9.99e-01 1.68e-04h  1
 224r-1.5374490e+01 1.11e-01 1.00e+03  -3.3 0.00e+00    -  0.00e+00 3.10e-07R  4
 225r-1.5374491e+01 1.11e-01 3.04e+02  -8.8 4.97e-01    -  7.25e-01 9.90e-04f  1
 226r-1.5374491e+01 1.11e-01 9.99e+02  -3.9 0.00e+00    -  0.00e+00 9.17e-08R  2
 227r-1.5374491e+01 1.11e-01 1.13e+03  -4.7 1.22e-01    -  1.21e-02 9.90e-04f  1
 228 -1.5380443e+01 1.11e-01 1.20e+00  -4.5 1.78e-01    -  9.62e-01 1.42e-01h  1
 229 -1.5380469e+01 1.11e-01 3.14e+01  -4.5 6.75e-01    -  9.82e-01 1.68e-04h  1
iter    objective    inf_pr   inf_du lg(mu)  ||d||  lg(rg) alpha_du alpha_pr  ls
 230r-1.5380469e+01 1.11e-01 1.00e+03  -3.4 0.00e+00  -0.5 0.00e+00 8.92e-08R  2
 231r-1.5380470e+01 1.11e-01 2.94e+02  -7.9 4.45e-01    -  7.36e-01 9.90e-04f  1
 232r-1.5380470e+01 1.11e-01 9.99e+02  -4.0 0.00e+00    -  0.00e+00 1.43e-07R  2
 233r-1.5380469e+01 1.11e-01 1.14e+03  -4.7 1.11e-01    -  1.13e-02 9.90e-04f  1
 234 -1.5386231e+01 1.11e-01 1.62e+00  -4.5 1.73e-01    -  9.63e-01 1.42e-01h  1
 235 -1.5386257e+01 1.11e-01 4.26e+01  -4.5 6.55e-01    -  9.83e-01 1.68e-04h  1
 236r-1.5386257e+01 1.11e-01 1.00e+03  -3.4 0.00e+00    -  0.00e+00 1.32e-07R  2
 237r-1.5386257e+01 1.11e-01 2.80e+02  -7.9 4.18e-01    -  7.50e-01 9.90e-04f  1
 238r-1.5386257e+01 1.11e-01 9.99e+02  -4.0 0.00e+00    -  0.00e+00 1.39e-07R  2
 239r-1.5386256e+01 1.11e-01 1.14e+03  -4.7 1.04e-01    -  1.08e-02 9.90e-04f  1
iter    objective    inf_pr   inf_du lg(mu)  ||d||  lg(rg) alpha_du alpha_pr  ls
 240 -1.5391830e+01 1.11e-01 2.07e+00  -4.5 1.67e-01    -  9.64e-01 1.42e-01h  1
 241 -1.5391856e+01 1.11e-01 5.47e+01  -4.5 6.36e-01    -  9.83e-01 1.68e-04h  1
 242r-1.5391856e+01 1.11e-01 1.00e+03  -3.4 0.00e+00    -  0.00e+00 1.30e-07R  2
 243r-1.5391855e+01 1.11e-01 2.63e+02  -7.9 3.92e-01    -  7.65e-01 9.90e-04f  1
 244r-1.5391855e+01 1.11e-01 9.99e+02  -4.0 0.00e+00    -  0.00e+00 1.36e-07R  2
 245r-1.5391855e+01 1.11e-01 1.14e+03  -4.7 9.75e-02    -  1.04e-02 9.90e-04f  1
 246 -1.5397238e+01 1.11e-01 2.34e+00  -4.5 1.62e-01    -  9.66e-01 1.42e-01h  1
 247 -1.5397262e+01 1.11e-01 6.20e+01  -4.5 6.18e-01    -  9.84e-01 1.68e-04h  1
 248r-1.5397262e+01 1.11e-01 1.00e+03  -3.4 0.00e+00    -  0.00e+00 1.29e-07R  2
 249r-1.5397262e+01 1.11e-01 2.44e+02  -7.9 3.66e-01    -  7.82e-01 9.90e-04f  1
iter    objective    inf_pr   inf_du lg(mu)  ||d||  lg(rg) alpha_du alpha_pr  ls
 250r-1.5397262e+01 1.11e-01 9.99e+02  -4.0 0.00e+00    -  0.00e+00 1.33e-07R  2
 251r-1.5397261e+01 1.11e-01 1.14e+03  -4.7 9.11e-02    -  1.00e-02 9.90e-04f  1
 252 -1.5402442e+01 1.11e-01 8.34e+01  -4.5 1.56e-01    -  9.67e-01 1.42e-01h  1
 253 -1.5402443e+01 1.11e-01 1.12e-01  -4.5 1.82e-02    -  9.99e-01 1.68e-04h  1
 254 -1.5402408e+01 1.11e-01 1.12e-01  -4.5 7.53e+02  -1.0 1.93e-07 1.93e-07s  2
 255r-1.5402408e+01 1.11e-01 1.00e+03  -3.5 0.00e+00  -1.4 0.00e+00 0.00e+00R  1
 256r-1.5402408e+01 1.11e-01 2.22e+02  -8.9 3.39e-01    -  8.01e-01 9.90e-04f  1
 257r-1.5402408e+01 1.11e-01 9.99e+02  -4.1 0.00e+00    -  0.00e+00 4.95e-09R  2
 258r-1.5402407e+01 1.11e-01 1.12e+03  -4.7 8.45e-02    -  2.66e-02 9.90e-04f  1
 259 -1.5404215e+01 1.11e-01 2.68e+01  -4.5 1.38e-01  -1.9 9.70e-01 5.58e-02h  1
iter    objective    inf_pr   inf_du lg(mu)  ||d||  lg(rg) alpha_du alpha_pr  ls
 260 -1.5404215e+01 1.11e-01 3.59e-02  -4.5 1.82e-02    -  9.99e-01 6.03e-05h  1
 261r-1.5404215e+01 1.11e-01 1.00e+03  -4.3 0.00e+00  -2.4 0.00e+00 4.20e-07R  4
 262r-1.5404214e+01 1.11e-01 3.12e+02  -9.0 5.02e-02    -  7.30e-01 9.90e-04f  1
 263r-1.5404214e+01 1.11e-01 9.99e+02  -4.9 0.00e+00    -  0.00e+00 3.50e-08R  2
 264r-1.5404211e+01 1.11e-01 1.15e+03  -4.7 1.26e-02    -  6.31e-03 9.91e-04f  1
 265 -1.5407184e+01 1.11e-01 5.06e+00  -6.7 8.92e-02  -1.1 9.81e-01 1.42e-01h  1
 266r-1.5407184e+01 1.11e-01 9.99e+02  -3.9 0.00e+00    -  0.00e+00 3.37e-07R  5
 267r-1.5407184e+01 1.11e-01 2.46e+02  -6.4 1.14e-01    -  7.81e-01 9.90e-04f  1
 268 -1.5407185e+01 1.11e-01 1.42e-02  -6.7 1.67e-02    -  9.96e-01 1.96e-04h  1
 269r-1.5407185e+01 1.11e-01 1.00e+03  -4.5 0.00e+00    -  0.00e+00 3.56e-09R  2
iter    objective    inf_pr   inf_du lg(mu)  ||d||  lg(rg) alpha_du alpha_pr  ls
 270r-1.5407184e+01 1.11e-01 3.02e+02  -7.1 2.83e-02    -  7.38e-01 9.90e-04f  1
 271r-1.5407184e+01 1.11e-01 9.99e+02  -5.1 0.00e+00  -0.6 0.00e+00 3.01e-07R  2
 272r-1.5407184e+01 1.11e-01 1.15e+03  -4.7 7.11e-03    -  6.19e-03 9.92e-04f  1
 273 -1.5412071e+01 1.11e-01 6.94e+00  -6.7 1.47e-01    -  9.70e-01 1.42e-01h  1
 274r-1.5412071e+01 1.11e-01 9.99e+02  -3.5 0.00e+00  -0.2 0.00e+00 3.37e-07R  5
 275r-1.5412071e+01 1.11e-01 1.07e+01  -6.2 3.01e-01    -  9.90e-01 9.90e-04f  1
 276 -1.5412075e+01 1.11e-01 1.40e+01  -6.7 5.62e-02  -0.7 9.88e-01 3.18e-04h  1
 277r-1.5412075e+01 1.11e-01 1.00e+03  -4.1 0.00e+00  -1.2 0.00e+00 5.19e-09R  2
 278r-1.5412075e+01 1.11e-01 2.19e+02  -6.6 7.50e-02    -  8.07e-01 9.90e-04f  1
 279r-1.5412075e+01 1.11e-01 9.99e+02  -4.7 0.00e+00    -  0.00e+00 4.94e-07R  3
iter    objective    inf_pr   inf_du lg(mu)  ||d||  lg(rg) alpha_du alpha_pr  ls
 280r-1.5412074e+01 1.11e-01 1.15e+03  -4.7 1.88e-02    -  6.49e-03 9.91e-04f  1
 281 -1.5412472e+01 1.11e-01 7.28e+00  -6.7 1.20e-02   0.2 9.97e-01 1.42e-01h  1
 282r-1.5412472e+01 1.11e-01 9.99e+02  -5.3 0.00e+00    -  0.00e+00 3.36e-07R  5
 283r-1.5412471e+01 1.11e-01 3.09e+02  -7.3 4.69e-03    -  7.34e-01 9.90e-04f  1
 284 -1.5412471e+01 1.11e-01 1.41e-02  -6.7 1.66e-02    -  9.96e-01 3.10e-05h  1
 285 -1.5559075e+01 2.71e-01 8.04e+02  -6.7 4.83e+00    -  5.03e-01 1.29e-01f  1
 286r-1.5559075e+01 2.71e-01 1.00e+03  -0.6 0.00e+00    -  0.00e+00 3.03e-07R  4
 287r-1.5558931e+01 1.11e-01 2.62e+00  -2.3 2.71e+02    -  1.00e+00 9.90e-04f  1
 288 -1.5558608e+01 1.11e-01 1.09e+02  -2.4 2.36e-02   1.5 1.00e+00 4.22e-02h  1
 289 -1.5558607e+01 1.11e-01 4.74e+01  -4.1 3.49e-03   1.0 1.00e+00 4.41e-04h  1
iter    objective    inf_pr   inf_du lg(mu)  ||d||  lg(rg) alpha_du alpha_pr  ls
 290r-1.5558607e+01 1.11e-01 1.00e+03  -1.2 0.00e+00   0.5 0.00e+00 2.76e-07R  5
 291r-1.5558247e+01 1.11e-01 1.42e+00  -3.0 6.47e+01    -  1.00e+00 9.90e-04f  1
 292 -1.5558231e+01 1.11e-01 2.92e+01  -4.0 2.93e-03    -  9.86e-01 9.00e-03h  1
 293 -1.5558230e+01 1.11e-01 1.85e-01  -1.9 4.45e-02    -  9.94e-01 9.08e-05h  1
 294 -1.5556538e+01 1.11e-01 2.38e+01  -7.7 2.93e-03    -  9.85e-01 9.90e-01h  1
 295 -1.5556688e+01 1.11e-01 3.63e+01  -5.6 7.13e-04    -  1.00e+00 1.00e+00h  1
 296 -1.5556702e+01 1.11e-01 3.65e+01  -7.7 4.17e-04    -  1.00e+00 1.00e+00h  1
 297 -1.5556706e+01 1.11e-01 3.66e+01  -9.8 4.25e-04    -  1.00e+00 1.00e+00h  1
 298 -1.5556727e+01 1.11e-01 1.44e+02 -11.0 2.03e-03    -  1.00e+00 1.00e+00h  1
 299 -1.5562790e+01 9.38e+00 2.38e+04 -11.0 1.30e+00    -  1.00e+00 1.00e+00H  1
iter    objective    inf_pr   inf_du lg(mu)  ||d||  lg(rg) alpha_du alpha_pr  ls
 300 -1.5560280e+01 2.29e-01 5.61e+03 -11.0 1.66e-01    -  1.00e+00 1.00e+00h  1
 301 -1.5560581e+01 1.11e-01 6.43e+03 -11.0 6.61e-02    -  1.00e+00 1.00e+00h  1
 302 -1.5560761e+01 1.11e-01 4.61e+03 -11.0 5.77e-02    -  1.00e+00 1.00e+00h  1
 303 -1.5560769e+01 1.11e-01 2.29e+01 -11.0 1.91e-04    -  1.00e+00 1.00e+00h  1
 304r-1.5560769e+01 1.11e-01 1.00e+03  -6.5 0.00e+00    -  0.00e+00 2.67e-09R  2
 305r-1.5560769e+01 1.11e-01 1.24e+02  -4.6 3.18e-04    -  8.76e-01 1.08e-03f  1
 306 -1.5556143e+01 1.11e-01 2.06e+03   1.9 7.95e+01    -  1.00e+00 2.52e-04f  1
 307r-1.5556143e+01 1.11e-01 1.00e+03   1.2 0.00e+00    -  0.00e+00 3.01e-07R  6
 308r-1.5556138e+01 1.11e-01 6.67e+00  -4.5 1.62e-02    -  9.90e-01 9.82e-01f  1
 309r-1.5556141e+01 1.11e-01 6.68e-02  -6.4 4.23e-04    -  9.90e-01 9.90e-01f  1
iter    objective    inf_pr   inf_du lg(mu)  ||d||  lg(rg) alpha_du alpha_pr  ls
 310 -1.5043914e+01 3.34e+00 2.04e+03   1.2 1.27e+01    -  1.00e+00 1.77e-01f  2
 311 -1.5011463e+01 1.11e-01 1.07e+03   0.5 6.03e-02    -  9.96e-01 1.00e+00h  1
 312 -1.5012597e+01 1.11e-01 4.61e+01  -0.2 4.52e-02    -  1.00e+00 9.94e-02h  1
 313 -1.5006871e+01 1.11e-01 1.57e+04  -0.9 2.07e+01    -  1.01e-01 1.11e-03H  1
 314r-1.5006871e+01 1.11e-01 1.00e+03  -1.6 0.00e+00    -  0.00e+00 2.77e-07R  9
 315r-1.5006871e+01 1.11e-01 1.57e-02  -2.0 1.66e+00    -  1.00e+00 3.87e-03f  1
 316 -1.5014958e+01 1.11e-01 1.51e+02  -1.6 5.10e-01    -  9.80e-01 6.28e-02h  3
 317 -1.5540600e+01 6.02e+01 3.92e+04  -1.6 2.15e+00    -  9.98e-01 1.00e+00f  1
 318 -1.5531119e+01 4.49e+01 1.76e+05  -1.6 5.96e-01    -  1.00e+00 2.55e-01h  1
 319 -1.5531053e+01 4.47e+01 9.99e+03  -1.6 4.98e-01    -  1.00e+00 3.42e-03h  1
iter    objective    inf_pr   inf_du lg(mu)  ||d||  lg(rg) alpha_du alpha_pr  ls
 320 -1.5529045e+01 4.47e+01 9.70e+03  -1.6 2.47e+02    -  4.98e-04 3.56e-05h  1
 321r-1.5529045e+01 4.47e+01 1.00e+03   1.3 0.00e+00    -  0.00e+00 3.16e-07R 12
 322r-1.5538558e+01 1.31e+01 6.33e+02  -0.8 2.19e+04    -  3.67e-01 9.98e-04f  1
 323 -1.5509888e+01 1.49e+00 3.02e+03  -1.6 4.31e-01    -  9.89e-01 1.00e+00f  1
 324 -1.5520658e+01 4.45e-01 2.09e+06  -1.6 1.68e-01    -  1.00e+00 9.90e-01h  1
 325 -1.5528373e+01 7.04e-01 3.57e+06  -1.6 1.27e+01    -  1.00e+00 1.09e-02h  3
 326 -1.5527997e+01 1.11e-01 5.78e+05  -1.6 5.97e-03    -  1.00e+00 9.73e-01h  1
 327 -1.5527681e+01 1.11e-01 1.53e+04  -1.6 3.83e-03    -  1.00e+00 3.64e-01h  1
 328 -1.5527672e+01 1.11e-01 9.09e+01  -1.6 7.14e-03    -  1.00e+00 5.73e-03h  1
 329 -1.5536329e+01 1.11e-01 1.92e+05  -2.4 3.50e-02    -  1.00e+00 1.00e+00h  1
iter    objective    inf_pr   inf_du lg(mu)  ||d||  lg(rg) alpha_du alpha_pr  ls
 330 -1.5536274e+01 1.11e-01 1.25e+05  -2.4 2.80e+00    -  1.28e-02 9.20e-05h  2
 331 -1.5536185e+01 1.11e-01 1.26e+05  -2.4 3.34e+00    -  2.45e-02 1.22e-04h 14
 332 -1.5534985e+01 1.11e-01 1.07e+05  -2.4 2.28e-02    -  1.00e+00 1.00e+00h  1
 333r-1.5534985e+01 1.11e-01 1.00e+03  -2.4 0.00e+00    -  0.00e+00 2.89e-07R  5
 334r-1.5534987e+01 1.11e-01 2.24e+02  -8.4 2.78e+00    -  7.76e-01 1.20e-03f  1
 335r-1.5534987e+01 1.11e-01 9.95e+02  -2.4 0.00e+00    -  0.00e+00 3.34e-07R  4
 336r-1.5534988e+01 1.11e-01 4.88e+02  -4.7 1.76e-01    -  5.09e-01 4.75e-03f  1
 337 -1.5535505e+01 1.11e-01 2.22e-01  -2.4 5.99e-03    -  9.90e-01 3.79e-01h  1
 338 -1.5535537e+01 1.11e-01 1.23e-01  -2.4 2.32e-02    -  9.92e-01 6.11e-03h  1
 339 -1.5535528e+01 1.11e-01 6.15e+00  -3.6 6.49e-01    -  6.01e-02 6.19e-05h  1
iter    objective    inf_pr   inf_du lg(mu)  ||d||  lg(rg) alpha_du alpha_pr  ls
 340r-1.5535528e+01 1.11e-01 1.00e+03  -3.9 0.00e+00   0.1 0.00e+00 3.16e-07R  4
 341r-1.5535528e+01 1.11e-01 3.94e+02  -8.6 1.30e-01    -  6.06e-01 9.90e-04f  1
 342r-1.5535528e+01 1.11e-01 9.99e+02  -4.5 0.00e+00    -  0.00e+00 1.36e-07R  2
 343r-1.5535528e+01 1.11e-01 9.98e+02  -4.7 3.28e-02    -  6.98e-03 9.90e-04f  1
 344 -1.5535782e+01 1.11e-01 3.89e-01  -5.4 7.91e-03  -0.4 9.98e-01 1.42e-01h  1
 345 -1.5535783e+01 1.11e-01 1.18e+01  -5.4 3.61e-02  -0.9 9.99e-01 4.26e-05h  1
 346 -1.5535778e+01 1.11e-01 1.18e+01  -5.4 1.49e+03  -1.4 1.39e-08 1.39e-08s  2
In iteration 346, 1 Slack too small, adjusting variable bound
 347 -1.5535775e+01 1.11e-01 7.56e+01  -5.4 7.14e+03  -0.0 5.68e-06 0.00e+00S  2
 348 -1.5531003e+01 1.11e-01 7.99e+00  -5.4 3.57e+03   0.4 5.88e-06 5.88e-06s  5
 349r-1.5531003e+01 1.11e-01 1.00e+03  -3.5 0.00e+00  -0.1 0.00e+00 0.00e+00R  1
iter    objective    inf_pr   inf_du lg(mu)  ||d||  lg(rg) alpha_du alpha_pr  ls
 350r-1.5531004e+01 1.11e-01 3.60e+02  -9.0 3.06e-01    -  6.56e-01 9.90e-04f  1
 351r-1.5531002e+01 1.11e-01 5.18e-04  -4.8 1.17e-04    -  1.00e+00 5.60e-01f  1
 352r-1.5531001e+01 1.11e-01 1.13e-04  -5.2 1.14e-05    -  1.00e+00 8.94e-01f  1
 353 -1.5531132e+01 1.11e-01 6.98e-03  -5.4 8.00e-03    -  9.98e-01 7.01e-02H  1
 354 -1.5541978e+01 7.84e+01 5.09e-01  -5.4 4.29e+00    -  9.92e-01 5.73e-01f  1
 355 -1.5542857e+01 7.56e+01 9.04e+01  -5.4 1.03e+00    -  9.99e-01 3.64e-02h  1
 356r-1.5542857e+01 7.56e+01 1.00e+03   1.6 0.00e+00    -  0.00e+00 3.04e-07R  6
 357r-1.5501827e+01 2.23e+01 9.22e+02   1.7 3.73e+04    -  9.07e-02 1.01e-03f  1
 358r-1.5511324e+01 5.49e+00 1.96e+01   0.8 1.03e+02    -  1.00e+00 8.97e-02f  1
 359r-1.5425924e+01 2.32e+00 1.27e+00   1.0 1.09e+00    -  9.71e-01 6.40e-01f  1
iter    objective    inf_pr   inf_du lg(mu)  ||d||  lg(rg) alpha_du alpha_pr  ls
 360r-1.5445257e+01 6.14e-01 5.25e+00   0.0 5.57e-01    -  1.00e+00 9.90e-01f  1
 361r-1.5464042e+01 1.33e-01 6.37e-01  -1.5 2.04e-01    -  9.93e-01 9.90e-01f  1
 362r-1.5467354e+01 1.11e-01 1.64e-01  -7.4 2.09e-02    -  9.87e-01 9.78e-01f  1
 363r-1.5467364e+01 1.11e-01 2.93e-03  -4.5 1.22e-04    -  9.93e-01 1.00e+00f  1
 364 -1.5467655e+01 1.11e-01 2.44e+01  -5.4 6.67e-02  -0.6 1.00e+00 1.84e-02f  5
 365 -1.5467873e+01 1.11e-01 4.00e-01  -5.4 2.07e-01  -1.1 1.00e+00 4.45e-03h  8
 366 -1.5555323e+01 1.11e-01 2.81e+02  -5.4 7.07e+00    -  7.02e-01 5.23e-02f  1
 367 -1.5556568e+01 2.30e-01 4.23e+02  -5.4 4.41e-01    -  1.00e+00 2.40e-01h  1
 368 -1.5556569e+01 2.30e-01 1.46e+02  -5.4 7.69e-01    -  1.00e+00 8.13e-05h  1
 369 -1.5559547e+01 9.09e+00 4.87e+00  -5.4 7.84e-01    -  1.00e+00 1.00e+00h  1
iter    objective    inf_pr   inf_du lg(mu)  ||d||  lg(rg) alpha_du alpha_pr  ls
 370 -1.5561011e+01 1.11e-01 4.92e+00  -5.4 4.49e-02    -  1.00e+00 1.00e+00h  1
 371 -1.5561013e+01 1.11e-01 4.31e-01  -7.3 3.59e-03    -  1.00e+00 1.00e+00h  1
 372 -1.5561013e+01 1.11e-01 1.09e-09  -9.4 1.24e-04    -  1.00e+00 1.00e+00h  1
 373 -1.5561013e+01 1.11e-01 2.97e-12 -11.0 7.27e-08    -  1.00e+00 1.00e+00h  1
 374 -1.5561013e+01 1.11e-01 1.57e-09 -11.0 5.85e-07    -  1.00e+00 4.88e-04h 12
 375 -1.5561013e+01 1.11e-01 4.16e-07 -11.0 1.61e-06    -  1.00e+00 2.44e-04h 13
 376 -1.5561013e+01 1.11e-01 2.01e-12 -11.0 2.41e-06    -  1.00e+00 1.00e+00s 22
 377 -1.5561013e+01 1.11e-01 1.71e-12 -11.0 8.04e-07    -  1.00e+00 1.00e+00s 22
 378r-1.5561013e+01 1.11e-01 1.00e+03  -6.9 0.00e+00    -  0.00e+00 0.00e+00R  1
 379r-1.5561003e+01 1.11e-01 1.60e-01  -5.0 4.12e-05    -  9.92e-01 1.00e+00f  1
iter    objective    inf_pr   inf_du lg(mu)  ||d||  lg(rg) alpha_du alpha_pr  ls
 380r-1.5560246e+01 1.11e-01 2.57e-06  -5.1 3.29e-03    -  1.00e+00 1.00e+00f  1
 381r-1.5560064e+01 1.11e-01 1.02e-05  -7.0 8.24e-04    -  1.00e+00 9.58e-01f  1
 382r-1.5559260e+01 1.11e-01 2.85e-06  -7.0 3.49e-03    -  1.00e+00 1.00e+00h  1
 383r-1.5559861e+01 1.11e-01 1.51e-06  -9.0 2.61e-03    -  1.00e+00 1.00e+00h  1
 384r-1.5559872e+01 1.11e-01 7.83e-07  -9.0 3.67e-04    -  1.00e+00 1.00e+00h  1
 385r-1.5559951e+01 1.11e-01 5.27e-08  -9.0 3.43e-04    -  1.00e+00 1.00e+00h  1
Restoration phase converged to a feasible point that is
unacceptable to the filter for the original problem.
Restoration phase in the restoration phase failed.

Number of Iterations....: 385

                                   (scaled)                 (unscaled)
Objective...............:  -1.5559951534623885e+01   -1.5559951534623885e+01
Dual infeasibility......:   1.1029001124838658e+00    1.1029001124838658e+00
Constraint violation....:   1.1792411070840755e-07    1.1095542413298130e-01
Variable bound violation:   0.0000000000000000e+00    0.0000000000000000e+00
Complementarity.........:   1.0000000000000001e-09    1.0000000000000001e-09
Overall NLP error.......:   1.1029001124838658e+00    1.1029001124838658e+00


Number of objective function evaluations             = 928
Number of objective gradient evaluations             = 369
Number of equality constraint evaluations            = 928
Number of inequality constraint evaluations          = 928
Number of equality constraint Jacobian evaluations   = 455
Number of inequality constraint Jacobian evaluations = 455
Number of Lagrangian Hessian evaluations             = 0
Total seconds in IPOPT                               = 44.010

EXIT: Restoration Failed!
